bestever    1646    in generation 0
[16, 14, 9, 4, 19, 15, 2, 18, 6, 3, 10, 11, 13, 8, 1, 20, 5, 12, 7, 17, 16, 14, 9, 4, 19, 15, 2, 18, 6, 3, 10, 11, 13, 8, 1, 20, 5, 12, 7, 17, 16, 14, 9, 4, 19, 15, 2, 18, 6, 3, 10, 11, 13, 8, 1, 20, 5, 12, 7, 17, 16, 14, 9, 4, 19, 15, 2, 18, 6, 3, 10, 11, 13, 8, 1, 20, 5, 12, 7, 17, 16, 14, 9, 4, 19, 15, 2, 18, 6, 3, 10, 11, 13, 8, 1, 20, 5, 12, 7, 17, 16, 14, 9, 4, 19, 15, 2, 18, 6, 3, 10, 11, 13, 8, 1, 20, 5, 12, 7, 17, 16, 14, 9, 4, 19, 15, 2, 18, 6, 3, 10, 11, 13, 8, 1, 20, 5, 12, 7, 17, 16, 14, 9, 4, 19, 15, 2, 18, 6, 3, 10, 11, 13, 8, 1, 20, 5, 12, 7, 17, 16, 14, 9, 4, 19, 15, 2, 18, 6, 3, 10, 11, 13, 8, 1, 20, 5, 12, 7, 17, 16, 14, 9, 4, 19, 15, 2, 18, 6, 3, 10, 11, 13, 8, 1, 20, 5, 12, 7, 17]
